10
-1 12 23 34 45 56 67 78 89 91
21 -1 32 43 54 65 76 87 98 10
11 22 -1 33 44 55 66 77 88 99
19 29 39 -1 49 59 69 79 89 99
13 24 35 46 -1 57 68 79 80 91
15 26 37 48 59 -1 61 72 83 94
17 28 39 50 61 72 -1 83 94 15
18 29 40 51 62 73 84 -1 95 16
19 30 41 52 63 74 85 96 -1 27
28 39 50 61 72 83 94 15 26 -1
